data/OOEBPP/R1000/BPP_1000_50_0.2_0.8_4.txt.ins
1000
50 50
1 40 743
2 40 779
3 40 989
4 40 928
5 40 157
6 40 625
7 40 612
8 40 943
9 40 524
10 40 761
11 40 595
12 40 750
13 40 79
14 40 975
15 40 226
16 40 542
17 40 162
18 40 995
19 40 129
20 40 827
21 40 385
22 40 174
23 40 562
24 40 579
25 40 760
26 40 266
27 40 213
28 40 818
29 40 969
30 40 429
31 39 76
32 39 783
33 39 212
34 39 386
35 39 406
36 39 573
37 39 696
38 39 995
39 39 426
40 39 253
41 39 163
42 39 459
43 39 150
44 39 899
45 39 414
46 39 756
47 39 698
48 39 165
49 39 751
50 39 23
51 39 575
52 39 953
53 39 17
54 39 402
55 39 481
56 38 654
57 38 418
58 38 444
59 38 754
60 38 130
61 38 419
62 38 626
63 38 684
64 38 398
65 38 281
66 38 901
67 38 512
68 38 886
69 38 416
70 38 400
71 38 323
72 38 27
73 38 423
74 38 326
75 38 619
76 38 155
77 38 448
78 38 523
79 38 96
80 38 749
81 38 981
82 38 997
83 38 197
84 38 299
85 38 415
86 38 962
87 37 840
88 37 474
89 37 180
90 37 161
91 37 146
92 37 386
93 37 20
94 37 188
95 37 47
96 37 571
97 37 763
98 37 31
99 37 709
100 37 538
101 37 198
102 37 79
103 37 769
104 37 126
105 37 186
106 37 30
107 37 589
108 37 773
109 37 206
110 37 212
111 37 231
112 37 53
113 37 587
114 37 841
115 37 382
116 37 268
117 37 50
118 37 961
119 37 968
120 37 933
121 37 40
122 37 923
123 37 343
124 37 121
125 37 449
126 36 163
127 36 697
128 36 403
129 36 109
130 36 815
131 36 464
132 36 445
133 36 732
134 36 552
135 36 782
136 36 249
137 36 654
138 36 520
139 36 375
140 36 641
141 36 437
142 36 570
143 36 51
144 36 840
145 36 935
146 36 738
147 36 695
148 36 455
149 36 854
150 36 740
151 36 160
152 36 353
153 36 768
154 36 519
155 36 538
156 36 129
157 35 543
158 35 811
159 35 9
160 35 872
161 35 28
162 35 528
163 35 875
164 35 899
165 35 531
166 35 656
167 35 657
168 35 259
169 35 646
170 35 313
171 35 573
172 35 7
173 35 750
174 35 323
175 35 656
176 35 241
177 35 475
178 35 201
179 35 617
180 34 393
181 34 778
182 34 204
183 34 920
184 34 78
185 34 272
186 34 557
187 34 354
188 34 408
189 34 118
190 34 61
191 34 255
192 34 464
193 34 981
194 34 143
195 34 306
196 34 796
197 34 805
198 34 539
199 34 6
200 34 990
201 34 227
202 34 726
203 34 233
204 34 39
205 34 395
206 34 70
207 34 408
208 34 289
209 34 418
210 34 927
211 33 703
212 33 670
213 33 88
214 33 364
215 33 932
216 33 687
217 33 947
218 33 315
219 33 967
220 33 755
221 33 872
222 33 349
223 33 588
224 33 919
225 33 905
226 33 801
227 33 768
228 33 92
229 33 854
230 33 724
231 33 356
232 33 365
233 33 362
234 33 121
235 33 812
236 33 677
237 33 992
238 33 670
239 32 182
240 32 883
241 32 961
242 32 526
243 32 518
244 32 341
245 32 982
246 32 866
247 32 462
248 32 784
249 32 622
250 32 545
251 32 544
252 32 515
253 32 36
254 32 538
255 32 676
256 32 996
257 32 462
258 32 710
259 32 673
260 32 222
261 32 886
262 31 356
263 31 226
264 31 734
265 31 573
266 31 986
267 31 2
268 31 651
269 31 188
270 31 469
271 31 121
272 31 191
273 31 666
274 31 793
275 31 841
276 31 903
277 31 42
278 31 659
279 31 908
280 31 682
281 31 264
282 31 475
283 31 390
284 31 272
285 31 729
286 31 23
287 31 442
288 31 252
289 31 660
290 31 7
291 31 69
292 31 656
293 31 671
294 31 210
295 31 376
296 31 603
297 31 184
298 31 305
299 31 113
300 31 639
301 30 870
302 30 4
303 30 259
304 30 421
305 30 155
306 30 780
307 30 742
308 30 383
309 30 784
310 30 956
311 30 993
312 30 477
313 30 20
314 30 284
315 30 668
316 30 235
317 30 699
318 30 697
319 30 983
320 30 70
321 30 120
322 30 0
323 30 162
324 30 160
325 30 448
326 30 689
327 30 755
328 30 93
329 30 563
330 30 134
331 30 16
332 30 117
333 30 447
334 30 711
335 30 638
336 30 298
337 30 212
338 30 222
339 30 956
340 30 111
341 30 684
342 29 96
343 29 442
344 29 323
345 29 190
346 29 0
347 29 55
348 29 344
349 29 84
350 29 46
351 29 537
352 29 709
353 29 474
354 29 856
355 29 976
356 29 651
357 29 105
358 29 840
359 29 287
360 29 777
361 29 523
362 29 459
363 29 938
364 29 278
365 29 629
366 29 544
367 29 506
368 29 472
369 29 869
370 29 204
371 29 750
372 29 401
373 29 192
374 29 189
375 29 61
376 29 202
377 29 395
378 29 620
379 29 926
380 29 786
381 28 976
382 28 883
383 28 18
384 28 861
385 28 455
386 28 603
387 28 876
388 28 526
389 28 109
390 28 557
391 28 634
392 28 641
393 28 595
394 28 701
395 28 90
396 28 511
397 28 698
398 28 222
399 28 258
400 28 279
401 28 502
402 28 746
403 28 476
404 28 102
405 28 106
406 28 142
407 28 119
408 28 945
409 28 842
410 28 696
411 28 342
412 28 659
413 28 837
414 28 94
415 28 326
416 28 301
417 27 552
418 27 249
419 27 154
420 27 665
421 27 411
422 27 576
423 27 851
424 27 935
425 27 764
426 27 571
427 27 138
428 27 334
429 27 444
430 27 408
431 27 54
432 27 92
433 27 130
434 27 619
435 27 622
436 27 264
437 27 201
438 27 146
439 27 350
440 27 141
441 27 72
442 27 579
443 27 359
444 27 389
445 27 221
446 27 752
447 27 878
448 27 1
449 27 210
450 27 899
451 27 817
452 27 129
453 27 415
454 27 634
455 27 538
456 27 658
457 27 195
458 26 285
459 26 140
460 26 81
461 26 509
462 26 678
463 26 821
464 26 571
465 26 383
466 26 160
467 26 449
468 26 826
469 26 85
470 26 604
471 26 166
472 26 550
473 26 809
474 26 713
475 26 356
476 26 496
477 26 142
478 26 594
479 26 937
480 26 793
481 26 806
482 26 426
483 26 547
484 26 83
485 26 297
486 25 316
487 25 916
488 25 606
489 25 117
490 25 225
491 25 395
492 25 310
493 25 145
494 25 694
495 25 287
496 25 369
497 25 149
498 25 269
499 25 283
500 25 274
501 25 871
502 25 369
503 25 875
504 25 581
505 25 821
506 25 793
507 25 989
508 25 112
509 25 279
510 25 67
511 25 589
512 25 465
513 24 2
514 24 900
515 24 59
516 24 709
517 24 434
518 24 830
519 24 962
520 24 68
521 24 275
522 24 73
523 24 406
524 24 316
525 24 44
526 24 766
527 24 750
528 24 676
529 24 359
530 24 959
531 24 522
532 24 327
533 24 716
534 24 756
535 24 519
536 24 13
537 24 264
538 24 906
539 24 648
540 24 826
541 24 685
542 24 944
543 23 610
544 23 271
545 23 79
546 23 859
547 23 747
548 23 529
549 23 736
550 23 761
551 23 781
552 23 290
553 23 978
554 23 577
555 23 960
556 23 987
557 23 457
558 23 793
559 23 388
560 23 157
561 23 696
562 23 260
563 23 381
564 23 315
565 23 993
566 23 905
567 22 961
568 22 847
569 22 453
570 22 975
571 22 745
572 22 950
573 22 888
574 22 629
575 22 215
576 22 23
577 22 931
578 22 328
579 22 102
580 22 164
581 22 752
582 22 813
583 22 316
584 22 520
585 22 181
586 22 891
587 22 58
588 22 94
589 22 629
590 22 120
591 22 804
592 22 249
593 22 115
594 21 530
595 21 38
596 21 550
597 21 863
598 21 750
599 21 522
600 21 251
601 21 581
602 21 461
603 21 998
604 21 856
605 21 663
606 21 195
607 21 117
608 21 105
609 21 2
610 21 18
611 21 516
612 21 646
613 21 637
614 21 893
615 21 164
616 21 997
617 21 313
618 21 273
619 21 62
620 21 244
621 21 376
622 21 14
623 21 998
624 21 746
625 21 649
626 21 213
627 21 898
628 21 38
629 20 32
630 20 508
631 20 479
632 20 98
633 20 616
634 20 511
635 20 474
636 20 110
637 20 760
638 20 81
639 20 306
640 20 106
641 20 861
642 20 636
643 20 234
644 20 593
645 20 394
646 20 490
647 20 489
648 20 170
649 20 319
650 20 586
651 20 130
652 20 908
653 20 12
654 20 278
655 20 784
656 20 483
657 20 417
658 19 479
659 19 534
660 19 112
661 19 376
662 19 726
663 19 654
664 19 42
665 19 949
666 19 882
667 19 472
668 19 465
669 19 543
670 19 305
671 19 742
672 19 861
673 19 713
674 19 454
675 19 483
676 19 745
677 19 955
678 19 24
679 19 854
680 19 675
681 19 265
682 19 407
683 19 768
684 19 651
685 19 672
686 19 908
687 19 473
688 19 994
689 19 653
690 19 58
691 19 596
692 19 279
693 19 154
694 19 48
695 19 392
696 19 763
697 19 405
698 19 966
699 19 81
700 18 585
701 18 280
702 18 823
703 18 535
704 18 547
705 18 923
706 18 503
707 18 369
708 18 39
709 18 652
710 18 751
711 18 58
712 18 444
713 18 821
714 18 413
715 18 687
716 18 843
717 18 926
718 18 882
719 18 782
720 18 471
721 18 746
722 18 651
723 18 703
724 18 763
725 18 483
726 18 246
727 18 438
728 18 455
729 18 731
730 18 822
731 18 877
732 18 381
733 18 640
734 18 872
735 17 631
736 17 266
737 17 839
738 17 24
739 17 21
740 17 704
741 17 188
742 17 529
743 17 101
744 17 634
745 17 942
746 17 181
747 17 901
748 17 898
749 17 17
750 17 45
751 17 785
752 17 303
753 17 366
754 17 500
755 17 879
756 17 652
757 17 901
758 17 117
759 17 917
760 17 266
761 17 676
762 17 972
763 17 370
764 17 924
765 17 754
766 17 236
767 17 80
768 17 812
769 17 980
770 17 57
771 16 501
772 16 68
773 16 492
774 16 165
775 16 819
776 16 217
777 16 158
778 16 490
779 16 886
780 16 809
781 16 513
782 16 315
783 16 435
784 16 606
785 16 564
786 16 100
787 16 294
788 16 397
789 16 494
790 16 7
791 16 340
792 16 700
793 16 381
794 16 866
795 16 180
796 16 781
797 16 552
798 16 420
799 16 229
800 16 168
801 16 128
802 16 312
803 15 36
804 15 929
805 15 74
806 15 31
807 15 681
808 15 312
809 15 428
810 15 969
811 15 885
812 15 763
813 15 861
814 15 649
815 15 771
816 15 415
817 15 578
818 15 733
819 15 893
820 15 715
821 15 640
822 15 158
823 15 47
824 15 644
825 15 693
826 15 610
827 15 578
828 15 696
829 15 491
830 15 778
831 15 505
832 15 203
833 15 54
834 15 680
835 15 419
836 15 953
837 15 872
838 15 150
839 15 224
840 15 821
841 14 247
842 14 245
843 14 401
844 14 374
845 14 850
846 14 214
847 14 113
848 14 346
849 14 943
850 14 384
851 14 687
852 14 245
853 14 623
854 14 162
855 14 515
856 14 39
857 14 108
858 14 633
859 14 465
860 14 770
861 14 506
862 14 646
863 14 851
864 14 791
865 14 642
866 14 147
867 14 739
868 14 891
869 14 911
870 14 592
871 14 537
872 14 481
873 13 119
874 13 187
875 13 173
876 13 196
877 13 862
878 13 840
879 13 574
880 13 600
881 13 65
882 13 162
883 13 152
884 13 0
885 13 489
886 13 863
887 13 791
888 13 796
889 13 327
890 13 448
891 13 250
892 13 296
893 13 348
894 13 24
895 13 31
896 13 455
897 13 528
898 13 126
899 13 739
900 13 838
901 12 67
902 12 747
903 12 966
904 12 577
905 12 137
906 12 828
907 12 956
908 12 720
909 12 628
910 12 252
911 12 205
912 12 724
913 12 484
914 12 941
915 12 613
916 12 363
917 12 743
918 12 77
919 12 159
920 12 860
921 12 23
922 12 309
923 12 20
924 12 251
925 12 495
926 12 274
927 12 81
928 12 355
929 12 357
930 12 198
931 12 665
932 12 49
933 12 961
934 12 37
935 12 983
936 12 921
937 11 92
938 11 735
939 11 622
940 11 384
941 11 220
942 11 239
943 11 441
944 11 179
945 11 339
946 11 921
947 11 736
948 11 96
949 11 671
950 11 341
951 11 152
952 11 534
953 11 185
954 11 914
955 11 972
956 11 69
957 11 599
958 11 828
959 11 563
960 11 333
961 11 327
962 11 291
963 11 622
964 11 868
965 11 605
966 11 416
967 11 792
968 11 799
969 11 992
970 11 561
971 10 809
972 10 58
973 10 198
974 10 751
975 10 943
976 10 214
977 10 301
978 10 470
979 10 181
980 10 151
981 10 951
982 10 675
983 10 673
984 10 588
985 10 37
986 10 795
987 10 29
988 10 592
989 10 147
990 10 995
991 10 721
992 10 87
993 10 215
994 10 314
995 10 521
996 10 436
997 10 12
998 10 153
999 10 975
1000 10 633
