results/OOEBPP/BPP_1000_50_0.2_0.8_4.txt.ins.log
294,293.129,34.1775,OPT,9177,0,0,AI,0,0.0578231,3.02721,0.483339,33.1792,0,2,0,48,48
